
  22   10
  10   10   10   10   10   10   10   10   10   10

   0   0   0   0   0   0   0   0   0   0   0   5 2 3 5 6 8 
   3   0   0   0   0   0   0   0   0  10   0   3 13 11 4 
  10   0   0  10   0   0   0   0   0   0   0   5 17 13 11 10 7 
   9   0   0  10   0   0   0   0   0   0   0   4 17 14 9 7 
   7   0   0  10   0   0   0   0   0   0   0   4 17 14 13 7 
   2   0   0   0   0   0   0   0   0   0  10   7 18 17 16 14 13 12 9 
   3  10   0   0   0   0   0   0   0   0   0   4 21 18 16 12 
   1   0  10   0   0   0   0   0   0   0   0   3 21 17 16 
   1   0   0   0   0   0   0   0   0   0  10   2 20 15 
   8   0   0   0   0   0   0   0   0   0  10   2 20 15 
   3   0   0   0   0  10   0   0   0   0   0   1 12 
  10   0   0   0   0   0  10   0   0   0   0   1 15 
   6  10   0   0   0   0   0   0   0   0   0   1 15 
   7   0   0   0   0  10   0   0   0   0   0   1 15 
   4   0  10   0   0   0   0   0   0   0   0   1 19 
   8   0   0   0   0   0   0   0   0   0  10   1 20 
   8   0  10   0   0   0   0   0   0   0   0   1 19 
   1   0   0   0   0   0   0   0   0  10   0   1 20 
   2   0   0   0  10   0   0   0   0   0   0   1 22
   9   0   0   0   0   0   0   0   0   0  10   1 22
   8   0   0   0   0   0   0   0   0   0  10   1 22
   0   0   0   0   0   0   0   0   0   0   0   0 
